7576.0
0 1 0 0 0 1 0 0 0 0 1 0 0 1 0 1 0 0 1 1 

9 26 30 31 62 68 69 89 



6 7 10 17 18 35 44 45 46 47 48 51 61 63 81 82 87 




1 3 20 21 22 24 25 38 39 40 52 53 54 55 57 66 71 72 73 74 


4 5 12 13 14 15 16 36 37 41 42 43 56 58 59 60 83 85 90 91 

0 8 19 29 34 49 50 64 65 70 


84 86 88 92 93 94 95 96 97 98 99 
2 11 23 27 28 32 33 67 75 76 77 78 79 80 
